NAME: Random_100_5
ELLAPSED_TIME_(ms): 18
TOUR_SIZE: 3157.3037
TOUR_SECTION
0
13
2
55
4
83
30
82
87
57
35
45
78
32
93
44
63
26
58
49
17
24
73
50
65
99
84
60
10
95
67
61
5
91
11
98
25
12
97
23
8
54
27
22
3
75
33
68
69
80
16
6
21
9
72
59
81
53
43
20
18
66
37
28
52
79
76
46
51
70
56
41
94
64
89
62
15
92
38
19
1
42
36
74
39
31
90
7
85
71
29
96
48
40
14
77
47
88
86
34
0
EOF
